p cnf 7 22
-2 4 5 0
-1 5 7 0
1 -4 5 0
1 2 -4 0
-2 -5 -6 0
-1 3 4 0
-2 6 -7 0
4 5 7 0
1 4 -5 0
3 -4 7 0
1 -2 3 0
-1 3 -5 0
5 6 7 0
4 5 6 0
4 6 -7 0
-1 2 4 0
4 -6 7 0
-3 4 7 0
2 -3 5 0
-1 -3 -6 0
1 -2 6 0
1 -3 7 0